50 8
731 755
539 498
244 662
336 579
460 458
569 106
530 93
436 314
773 240
363 812
435 311
314 163
601 579
912 184
326 317
462 627
919 544
387 848
449 73
280 390
562 589
367 289
343 321
588 558
273 157
902 224
409 190
733 198
168 14
902 538
603 583
706 599
55 22
864 859
813 534
841 137
563 678
789 166
701 686
693 229
369 602
857 192
337 608
597 587
307 269
622 486
634 103
642 619
678 458
245 275
